
Gurobi 13.0.1 (win64) logging started Mon Mar  9 17:08:46 2026

Set parameter LogFile to value "c:\users\evert\documents\tu-delft\til master\til5050-20 til design project\til_design_repo\til_design\modeling\Logs\gurobi.log"
Gurobi Optimizer version 13.0.1 build v13.0.1rc0 (win64 - Windows 11+.0 (26200.2))

CPU model: 13th Gen Intel(R) Core(TM) i7-13700H, instruction set [SSE2|AVX|AVX2]
Thread count: 14 physical cores, 20 logical processors, using up to 20 threads

Optimize a model with 2160 rows, 1920 columns and 4476 nonzeros (Max)
Model fingerprint: 0x83cc9bc0
Model has 720 linear objective coefficients
Variable types: 744 continuous, 1176 integer (1176 binary)
Coefficient statistics:
  Matrix range     [4e-01, 2e+03]
  Objective range  [1e+00, 1e+00]
  Bounds range     [1e+00, 1e+03]
  RHS range        [1e+00, 3e+03]

Found heuristic solution: objective -0.0000000
Presolve removed 2080 rows and 1877 columns
Presolve time: 0.03s
Presolved: 80 rows, 43 columns, 238 nonzeros
Found heuristic solution: objective 24.0000000
Variable types: 4 continuous, 39 integer (39 binary)

Root relaxation: objective 5.057842e+01, 45 iterations, 0.00 seconds (0.00 work units)

    Nodes    |    Current Node    |     Objective Bounds      |     Work
 Expl Unexpl |  Obj  Depth IntInf | Incumbent    BestBd   Gap | It/Node Time

     0     0   50.57842    0   33   24.00000   50.57842   111%     -    0s
H    0     0                      25.0000000   50.57842   102%     -    0s
H    0     0                      26.0000000   50.57842  94.5%     -    0s
H    0     0                      28.0000000   50.57842  80.6%     -    0s
     0     0     cutoff    0        28.00000   28.00000  0.00%     -    0s

Cutting planes:
  Learned: 132
  Gomory: 2
  Cover: 8
  MIR: 2
  RLT: 1
  BQP: 2

Explored 1 nodes (63 simplex iterations) in 0.07 seconds (0.03 work units)
Thread count was 20 (of 20 available processors)

Solution count 5: 28 26 25 ... -0

Optimal solution found (tolerance 1.00e-04)
Best objective 2.800000000000e+01, best bound 2.800000000000e+01, gap 0.0000%
Gurobi Optimizer version 13.0.1 build v13.0.1rc0 (win64 - Windows 11+.0 (26200.2))

CPU model: 13th Gen Intel(R) Core(TM) i7-13700H, instruction set [SSE2|AVX|AVX2]
Thread count: 14 physical cores, 20 logical processors, using up to 20 threads

Optimize a model with 2161 rows, 1920 columns and 5196 nonzeros (Max)
Model fingerprint: 0x905a76bb
Model has 60 linear objective coefficients
Variable types: 744 continuous, 1176 integer (1176 binary)
Coefficient statistics:
  Matrix range     [4e-01, 2e+03]
  Objective range  [1e+00, 1e+00]
  Bounds range     [1e+00, 1e+03]
  RHS range        [1e+00, 3e+03]

MIP start from previous solve produced solution with objective -0 (0.01s)
Loaded MIP start from previous solve with objective -0

Presolve removed 1631 rows and 1612 columns
Presolve time: 0.01s
Presolved: 530 rows, 308 columns, 1635 nonzeros
Variable types: 24 continuous, 284 integer (284 binary)
Found heuristic solution: objective 10.0000000

Root relaxation: objective 2.800000e+01, 242 iterations, 0.00 seconds (0.00 work units)

    Nodes    |    Current Node    |     Objective Bounds      |     Work
 Expl Unexpl |  Obj  Depth IntInf | Incumbent    BestBd   Gap | It/Node Time

     0     0   28.00000    0   53   10.00000   28.00000   180%     -    0s
     0     0   28.00000    0   42   10.00000   28.00000   180%     -    0s
     0     0   28.00000    0   89   10.00000   28.00000   180%     -    0s
H    0     0                      12.0000000   28.00000   133%     -    0s
     0     0   27.18755    0   77   12.00000   27.18755   127%     -    0s
     0     0   27.18755    0   40   12.00000   27.18755   127%     -    0s
H    0     0                      13.0000000   27.18755   109%     -    0s
     0     0   26.00000    0   40   13.00000   26.00000   100%     -    0s
     0     0   26.00000    0   40   13.00000   26.00000   100%     -    0s
H    0     2                      15.0000000   26.00000  73.3%     -    0s
     0     2   26.00000    0   40   15.00000   26.00000  73.3%     -    0s
H    8    16                      18.0000000   26.00000  44.4%   105    0s
H   34    47                      20.0000000   26.00000  30.0%  80.4    0s

Cutting planes:
  Learned: 530
  Gomory: 2
  Cover: 67
  Implied bound: 24
  Clique: 2
  MIR: 20
  RLT: 2
  Relax-and-lift: 21

Explored 383 nodes (10765 simplex iterations) in 0.24 seconds (0.25 work units)
Thread count was 20 (of 20 available processors)

Solution count 7: 20 18 15 ... -0

Optimal solution found (tolerance 1.00e-04)
Best objective 2.000000000000e+01, best bound 2.000000000000e+01, gap 0.0000%
Gurobi Optimizer version 13.0.1 build v13.0.1rc0 (win64 - Windows 11+.0 (26200.2))

CPU model: 13th Gen Intel(R) Core(TM) i7-13700H, instruction set [SSE2|AVX|AVX2]
Thread count: 14 physical cores, 20 logical processors, using up to 20 threads

Optimize a model with 2162 rows, 1920 columns and 5256 nonzeros (Min)
Model fingerprint: 0x221557c1
Model has 720 linear objective coefficients
Variable types: 744 continuous, 1176 integer (1176 binary)
Coefficient statistics:
  Matrix range     [4e-01, 2e+03]
  Objective range  [1e+00, 1e+00]
  Bounds range     [1e+00, 1e+03]
  RHS range        [1e+00, 3e+03]

MIP start from previous solve produced solution with objective 284.8 (0.00s)
MIP start from previous solve produced solution with objective 284.8 (0.01s)
Loaded MIP start from previous solve with objective 284.8

Presolve removed 1193 rows and 1388 columns
Presolve time: 0.01s
Presolved: 969 rows, 532 columns, 3278 nonzeros
Variable types: 248 continuous, 284 integer (284 binary)

Root relaxation: objective 0.000000e+00, 440 iterations, 0.00 seconds (0.01 work units)

    Nodes    |    Current Node    |     Objective Bounds      |     Work
 Expl Unexpl |  Obj  Depth IntInf | Incumbent    BestBd   Gap | It/Node Time

     0     0    0.00000    0   50  284.80000    0.00000   100%     -    0s
     0     0    0.00000    0   56  284.80000    0.00000   100%     -    0s
     0     0    0.00000    0   49  284.80000    0.00000   100%     -    0s
     0     0    0.00000    0   57  284.80000    0.00000   100%     -    0s
     0     0    0.00000    0   38  284.80000    0.00000   100%     -    0s
     0     0    0.00000    0   42  284.80000    0.00000   100%     -    0s
     0     0    0.00000    0   48  284.80000    0.00000   100%     -    0s
     0     0    0.00000    0   39  284.80000    0.00000   100%     -    0s
H    0     0                     257.6000000    0.00000   100%     -    0s
     0     0    0.00000    0   39  257.60000    0.00000   100%     -    0s
     0     0    0.00000    0   33  257.60000    0.00000   100%     -    0s
H    0     0                     247.6000000    0.00000   100%     -    0s
     0     2    0.00000    0   33  247.60000    0.00000   100%     -    0s
H  523   124                     218.0000000  100.80000  53.8%  29.9    0s
H  987   115                     217.9999998  140.80000  35.4%  20.5    0s

Cutting planes:
  Learned: 722
  Gomory: 20
  Cover: 194
  Implied bound: 1
  Clique: 13
  MIR: 97
  Flow cover: 1
  Inf proof: 8
  RLT: 18
  Relax-and-lift: 34
  BQP: 3

Explored 2106 nodes (30081 simplex iterations) in 0.67 seconds (0.74 work units)
Thread count was 20 (of 20 available processors)

Solution count 4: 218 218 247.6 284.8 

Optimal solution found (tolerance 1.00e-04)
Best objective 2.179999998366e+02, best bound 2.179999998256e+02, gap 0.0000%

Gurobi 13.0.1 (win64) logging started Mon Mar  9 17:11:09 2026

Set parameter LogFile to value "c:\users\evert\documents\tu-delft\til master\til5050-20 til design project\til_design_repo\til_design\modeling\Logs\gurobi.log"
Gurobi Optimizer version 13.0.1 build v13.0.1rc0 (win64 - Windows 11+.0 (26200.2))

CPU model: 13th Gen Intel(R) Core(TM) i7-13700H, instruction set [SSE2|AVX|AVX2]
Thread count: 14 physical cores, 20 logical processors, using up to 20 threads

Optimize a model with 2160 rows, 1920 columns and 4476 nonzeros (Max)
Model fingerprint: 0x4e21795c
Model has 720 linear objective coefficients
Variable types: 744 continuous, 1176 integer (1176 binary)
Coefficient statistics:
  Matrix range     [4e-01, 2e+03]
  Objective range  [1e+00, 1e+00]
  Bounds range     [1e+00, 1e+03]
  RHS range        [1e+00, 3e+03]

Found heuristic solution: objective -0.0000000
Presolve removed 2080 rows and 1877 columns
Presolve time: 0.03s
Presolved: 80 rows, 43 columns, 238 nonzeros
Found heuristic solution: objective 24.0000000
Variable types: 4 continuous, 39 integer (39 binary)

Root relaxation: objective 5.062821e+01, 45 iterations, 0.00 seconds (0.00 work units)

    Nodes    |    Current Node    |     Objective Bounds      |     Work
 Expl Unexpl |  Obj  Depth IntInf | Incumbent    BestBd   Gap | It/Node Time

     0     0   50.62821    0   33   24.00000   50.62821   111%     -    0s
H    0     0                      25.0000000   50.62821   103%     -    0s
H    0     0                      26.0000000   50.62821  94.7%     -    0s
H    0     0                      28.0000000   50.62821  80.8%     -    0s
     0     0     cutoff    0        28.00000   28.00000  0.00%     -    0s

Cutting planes:
  Learned: 132
  Gomory: 2
  Cover: 8
  MIR: 2
  RLT: 1
  BQP: 2

Explored 1 nodes (63 simplex iterations) in 0.06 seconds (0.03 work units)
Thread count was 20 (of 20 available processors)

Solution count 5: 28 26 25 ... -0

Optimal solution found (tolerance 1.00e-04)
Best objective 2.800000000000e+01, best bound 2.800000000000e+01, gap 0.0000%
Gurobi Optimizer version 13.0.1 build v13.0.1rc0 (win64 - Windows 11+.0 (26200.2))

CPU model: 13th Gen Intel(R) Core(TM) i7-13700H, instruction set [SSE2|AVX|AVX2]
Thread count: 14 physical cores, 20 logical processors, using up to 20 threads

Optimize a model with 2161 rows, 1920 columns and 5196 nonzeros (Max)
Model fingerprint: 0x2ff8143f
Model has 60 linear objective coefficients
Variable types: 744 continuous, 1176 integer (1176 binary)
Coefficient statistics:
  Matrix range     [4e-01, 2e+03]
  Objective range  [1e+00, 1e+00]
  Bounds range     [1e+00, 1e+03]
  RHS range        [1e+00, 3e+03]

MIP start from previous solve produced solution with objective -0 (0.00s)
Loaded MIP start from previous solve with objective -0

Presolve removed 1631 rows and 1612 columns
Presolve time: 0.01s
Presolved: 530 rows, 308 columns, 1635 nonzeros
Variable types: 24 continuous, 284 integer (284 binary)
Found heuristic solution: objective 13.0000000

Root relaxation: objective 2.800000e+01, 261 iterations, 0.00 seconds (0.00 work units)

    Nodes    |    Current Node    |     Objective Bounds      |     Work
 Expl Unexpl |  Obj  Depth IntInf | Incumbent    BestBd   Gap | It/Node Time

     0     0   28.00000    0   51   13.00000   28.00000   115%     -    0s
     0     0   28.00000    0   44   13.00000   28.00000   115%     -    0s
     0     0   28.00000    0   35   13.00000   28.00000   115%     -    0s
H    0     0                      14.0000000   28.00000   100%     -    0s
     0     0   28.00000    0   70   14.00000   28.00000   100%     -    0s
     0     0   28.00000    0   24   14.00000   28.00000   100%     -    0s
H    0     0                      15.0000000   28.00000  86.7%     -    0s
H    0     0                      16.0000000   28.00000  75.0%     -    0s
H    0     0                      17.0000000   28.00000  64.7%     -    0s
     0     0   28.00000    0   55   17.00000   28.00000  64.7%     -    0s
     0     0   27.52765    0   79   17.00000   27.52765  61.9%     -    0s
     0     0   27.52765    0   56   17.00000   27.52765  61.9%     -    0s
H    0     0                      18.0000000   27.40255  52.2%     -    0s
     0     0   27.40255    0   55   18.00000   27.40255  52.2%     -    0s
     0     0   27.40255    0   56   18.00000   27.40255  52.2%     -    0s
H    0     0                      23.0000000   27.40255  19.1%     -    0s
     0     0   26.00000    0   41   23.00000   26.00000  13.0%     -    0s
H    0     0                      25.0000000   26.00000  4.00%     -    0s
     0     0   26.00000    0   29   25.00000   26.00000  4.00%     -    0s
     0     0   26.00000    0   28   25.00000   26.00000  4.00%     -    0s
H    0     0                      26.0000000   26.00000  0.00%     -    0s
     0     0   26.00000    0   28   26.00000   26.00000  0.00%     -    0s

Cutting planes:
  Learned: 225
  Gomory: 3
  Cover: 35
  Implied bound: 3
  Clique: 15
  MIR: 7
  RLT: 2
  Relax-and-lift: 7

Explored 1 nodes (2073 simplex iterations) in 0.17 seconds (0.15 work units)
Thread count was 20 (of 20 available processors)

Solution count 10: 26 25 23 ... -0

Optimal solution found (tolerance 1.00e-04)
Best objective 2.600000000000e+01, best bound 2.600000000000e+01, gap 0.0000%
Gurobi Optimizer version 13.0.1 build v13.0.1rc0 (win64 - Windows 11+.0 (26200.2))

CPU model: 13th Gen Intel(R) Core(TM) i7-13700H, instruction set [SSE2|AVX|AVX2]
Thread count: 14 physical cores, 20 logical processors, using up to 20 threads

Optimize a model with 2162 rows, 1920 columns and 5256 nonzeros (Min)
Model fingerprint: 0x73a6e541
Model has 720 linear objective coefficients
Variable types: 744 continuous, 1176 integer (1176 binary)
Coefficient statistics:
  Matrix range     [4e-01, 2e+03]
  Objective range  [1e+00, 1e+00]
  Bounds range     [1e+00, 1e+03]
  RHS range        [1e+00, 3e+03]

MIP start from previous solve produced solution with objective 302 (0.01s)
MIP start from previous solve produced solution with objective 302 (0.01s)
Loaded MIP start from previous solve with objective 302

Presolve removed 1191 rows and 1388 columns
Presolve time: 0.01s
Presolved: 971 rows, 532 columns, 3282 nonzeros
Variable types: 248 continuous, 284 integer (284 binary)

Root relaxation: objective 0.000000e+00, 346 iterations, 0.00 seconds (0.00 work units)

    Nodes    |    Current Node    |     Objective Bounds      |     Work
 Expl Unexpl |  Obj  Depth IntInf | Incumbent    BestBd   Gap | It/Node Time

     0     0    0.00000    0   60  302.00000    0.00000   100%     -    0s
     0     0    0.00000    0   45  302.00000    0.00000   100%     -    0s
     0     0    0.00000    0   47  302.00000    0.00000   100%     -    0s
     0     0    0.00000    0   89  302.00000    0.00000   100%     -    0s
     0     0    0.00000    0   44  302.00000    0.00000   100%     -    0s
H    0     0                     290.0000000    0.00000   100%     -    0s
     0     0    0.00000    0   44  290.00000    0.00000   100%     -    0s
     0     0    0.00000    0   44  290.00000    0.00000   100%     -    0s
     0     2    0.00000    0   44  290.00000    0.00000   100%     -    0s
H   85    34                     288.4000000    0.00000   100%   101    0s
H  237    88                     258.4000000    0.00000   100%  47.5    0s
H  572   131                     251.2000000    0.00000   100%  28.0    0s

Cutting planes:
  Learned: 620
  Gomory: 9
  Cover: 170
  Implied bound: 8
  Clique: 8
  MIR: 37
  StrongCG: 1
  RLT: 12
  Relax-and-lift: 26
  BQP: 3

Explored 1365 nodes (25915 simplex iterations) in 0.55 seconds (0.56 work units)
Thread count was 20 (of 20 available processors)

Solution count 5: 251.2 258.4 288.4 ... 302

Optimal solution found (tolerance 1.00e-04)
Best objective 2.512000000000e+02, best bound 2.512000000000e+02, gap 0.0000%

Gurobi 13.0.1 (win64) logging started Mon Mar  9 17:19:34 2026

Set parameter LogFile to value "c:\users\evert\documents\tu-delft\til master\til5050-20 til design project\til_design_repo\til_design\modeling\Logs\gurobi.log"
Gurobi Optimizer version 13.0.1 build v13.0.1rc0 (win64 - Windows 11+.0 (26200.2))

CPU model: 13th Gen Intel(R) Core(TM) i7-13700H, instruction set [SSE2|AVX|AVX2]
Thread count: 14 physical cores, 20 logical processors, using up to 20 threads

Optimize a model with 2160 rows, 1920 columns and 4476 nonzeros (Max)
Model fingerprint: 0xbf7a103e
Model has 720 linear objective coefficients
Variable types: 744 continuous, 1176 integer (1176 binary)
Coefficient statistics:
  Matrix range     [4e-01, 2e+03]
  Objective range  [1e+00, 1e+00]
  Bounds range     [1e+00, 1e+03]
  RHS range        [1e+00, 3e+03]

Found heuristic solution: objective 9.0000000
Presolve removed 2154 rows and 1914 columns
Presolve time: 0.01s
Presolved: 6 rows, 6 columns, 18 nonzeros
Found heuristic solution: objective 19.0000000
Variable types: 2 continuous, 4 integer (4 binary)

Root relaxation: objective 2.067568e+01, 3 iterations, 0.00 seconds (0.00 work units)

    Nodes    |    Current Node    |     Objective Bounds      |     Work
 Expl Unexpl |  Obj  Depth IntInf | Incumbent    BestBd   Gap | It/Node Time

     0     0   20.67568    0    1   19.00000   20.67568  8.82%     -    0s
*    0     0               0      20.0000000   20.00000  0.00%     -    0s

Explored 1 nodes (5 simplex iterations) in 0.02 seconds (0.00 work units)
Thread count was 20 (of 20 available processors)

Solution count 3: 20 19 9 

Optimal solution found (tolerance 1.00e-04)
Best objective 2.000000000000e+01, best bound 2.000000000000e+01, gap 0.0000%
Gurobi Optimizer version 13.0.1 build v13.0.1rc0 (win64 - Windows 11+.0 (26200.2))

CPU model: 13th Gen Intel(R) Core(TM) i7-13700H, instruction set [SSE2|AVX|AVX2]
Thread count: 14 physical cores, 20 logical processors, using up to 20 threads

Optimize a model with 2161 rows, 1920 columns and 5196 nonzeros (Max)
Model fingerprint: 0xd91c9200
Model has 60 linear objective coefficients
Variable types: 744 continuous, 1176 integer (1176 binary)
Coefficient statistics:
  Matrix range     [4e-01, 2e+03]
  Objective range  [1e+00, 1e+00]
  Bounds range     [1e+00, 1e+03]
  RHS range        [1e+00, 3e+03]

MIP start from previous solve produced solution with objective -0 (0.00s)
MIP start from previous solve produced solution with objective -0 (0.00s)
Loaded MIP start from previous solve with objective -0

Presolve removed 2140 rows and 1898 columns
Presolve time: 0.02s
Presolved: 21 rows, 22 columns, 69 nonzeros
Found heuristic solution: objective 20.0000000
Variable types: 6 continuous, 16 integer (15 binary)

Root relaxation: cutoff, 11 iterations, 0.00 seconds (0.00 work units)

    Nodes    |    Current Node    |     Objective Bounds      |     Work
 Expl Unexpl |  Obj  Depth IntInf | Incumbent    BestBd   Gap | It/Node Time

     0     0     cutoff    0        20.00000   20.00000  0.00%     -    0s

Explored 1 nodes (11 simplex iterations) in 0.02 seconds (0.01 work units)
Thread count was 20 (of 20 available processors)

Solution count 2: 20 -0 

Optimal solution found (tolerance 1.00e-04)
Best objective 2.000000000000e+01, best bound 2.000000000000e+01, gap 0.0000%
Gurobi Optimizer version 13.0.1 build v13.0.1rc0 (win64 - Windows 11+.0 (26200.2))

CPU model: 13th Gen Intel(R) Core(TM) i7-13700H, instruction set [SSE2|AVX|AVX2]
Thread count: 14 physical cores, 20 logical processors, using up to 20 threads

Optimize a model with 2162 rows, 1920 columns and 5256 nonzeros (Min)
Model fingerprint: 0x7dbaf50f
Model has 720 linear objective coefficients
Variable types: 744 continuous, 1176 integer (1176 binary)
Coefficient statistics:
  Matrix range     [4e-01, 2e+03]
  Objective range  [1e+00, 1e+00]
  Bounds range     [1e+00, 1e+03]
  RHS range        [1e+00, 3e+03]

MIP start from previous solve produced solution with objective 176.4 (0.02s)
MIP start from previous solve produced solution with objective 176.4 (0.02s)
Loaded MIP start from previous solve with objective 176.4

Presolve removed 2042 rows and 1807 columns
Presolve time: 0.00s
Presolved: 120 rows, 113 columns, 400 nonzeros
Variable types: 46 continuous, 67 integer (67 binary)

Root relaxation: objective 3.859958e+01, 122 iterations, 0.00 seconds (0.00 work units)

    Nodes    |    Current Node    |     Objective Bounds      |     Work
 Expl Unexpl |  Obj  Depth IntInf | Incumbent    BestBd   Gap | It/Node Time

     0     0   38.59958    0   38  176.40000   38.59958  78.1%     -    0s
H    0     0                     144.0000000   38.59958  73.2%     -    0s
     0     0  123.58811    0   24  144.00000  123.58811  14.2%     -    0s
     0     0  144.00000    0    8  144.00000  144.00000  0.00%     -    0s

Cutting planes:
  Learned: 9
  Gomory: 4
  Cover: 6
  Implied bound: 3
  Clique: 15
  MIR: 5
  Flow cover: 9
  RLT: 3
  Relax-and-lift: 1
  BQP: 1

Explored 1 nodes (190 simplex iterations) in 0.04 seconds (0.01 work units)
Thread count was 20 (of 20 available processors)

Solution count 2: 144 176.4 

Optimal solution found (tolerance 1.00e-04)
Best objective 1.440000000000e+02, best bound 1.440000000000e+02, gap 0.0000%

Gurobi 13.0.1 (win64) logging started Mon Mar  9 17:20:46 2026

Set parameter LogFile to value "c:\users\evert\documents\tu-delft\til master\til5050-20 til design project\til_design_repo\til_design\modeling\Logs\gurobi.log"
Gurobi Optimizer version 13.0.1 build v13.0.1rc0 (win64 - Windows 11+.0 (26200.2))

CPU model: 13th Gen Intel(R) Core(TM) i7-13700H, instruction set [SSE2|AVX|AVX2]
Thread count: 14 physical cores, 20 logical processors, using up to 20 threads

Optimize a model with 2160 rows, 1920 columns and 4476 nonzeros (Max)
Model fingerprint: 0x5843ab65
Model has 720 linear objective coefficients
Variable types: 744 continuous, 1176 integer (1176 binary)
Coefficient statistics:
  Matrix range     [4e-01, 2e+03]
  Objective range  [1e+00, 1e+00]
  Bounds range     [1e+00, 1e+03]
  RHS range        [1e+00, 3e+03]

Found heuristic solution: objective 8.0000000
Presolve removed 2154 rows and 1914 columns
Presolve time: 0.00s
Presolved: 6 rows, 6 columns, 18 nonzeros
Found heuristic solution: objective 18.0000000
Variable types: 2 continuous, 4 integer (4 binary)

Root relaxation: objective 1.972464e+01, 2 iterations, 0.00 seconds (0.00 work units)

    Nodes    |    Current Node    |     Objective Bounds      |     Work
 Expl Unexpl |  Obj  Depth IntInf | Incumbent    BestBd   Gap | It/Node Time

     0     0   19.72464    0    1   18.00000   19.72464  9.58%     -    0s
*    0     0               0      19.0000000   19.00000  0.00%     -    0s

Explored 1 nodes (3 simplex iterations) in 0.02 seconds (0.00 work units)
Thread count was 20 (of 20 available processors)

Solution count 3: 19 18 8 

Optimal solution found (tolerance 1.00e-04)
Best objective 1.900000000000e+01, best bound 1.900000000000e+01, gap 0.0000%
Gurobi Optimizer version 13.0.1 build v13.0.1rc0 (win64 - Windows 11+.0 (26200.2))

CPU model: 13th Gen Intel(R) Core(TM) i7-13700H, instruction set [SSE2|AVX|AVX2]
Thread count: 14 physical cores, 20 logical processors, using up to 20 threads

Optimize a model with 2161 rows, 1920 columns and 5196 nonzeros (Max)
Model fingerprint: 0x56b1b6a6
Model has 60 linear objective coefficients
Variable types: 744 continuous, 1176 integer (1176 binary)
Coefficient statistics:
  Matrix range     [4e-01, 2e+03]
  Objective range  [1e+00, 1e+00]
  Bounds range     [1e+00, 1e+03]
  RHS range        [1e+00, 3e+03]

MIP start from previous solve produced solution with objective -0 (0.02s)
MIP start from previous solve produced solution with objective -0 (0.02s)
Loaded MIP start from previous solve with objective -0

Presolve removed 2125 rows and 1881 columns
Presolve time: 0.00s
Presolved: 36 rows, 39 columns, 123 nonzeros
Found heuristic solution: objective 19.0000000
Variable types: 10 continuous, 29 integer (28 binary)

Root relaxation: cutoff, 10 iterations, 0.00 seconds (0.00 work units)

    Nodes    |    Current Node    |     Objective Bounds      |     Work
 Expl Unexpl |  Obj  Depth IntInf | Incumbent    BestBd   Gap | It/Node Time

     0     0     cutoff    0        19.00000   19.00000  0.00%     -    0s

Explored 1 nodes (10 simplex iterations) in 0.02 seconds (0.01 work units)
Thread count was 20 (of 20 available processors)

Solution count 2: 19 -0 

Optimal solution found (tolerance 1.00e-04)
Best objective 1.900000000000e+01, best bound 1.900000000000e+01, gap 0.0000%
Gurobi Optimizer version 13.0.1 build v13.0.1rc0 (win64 - Windows 11+.0 (26200.2))

CPU model: 13th Gen Intel(R) Core(TM) i7-13700H, instruction set [SSE2|AVX|AVX2]
Thread count: 14 physical cores, 20 logical processors, using up to 20 threads

Optimize a model with 2162 rows, 1920 columns and 5256 nonzeros (Min)
Model fingerprint: 0xf4efb423
Model has 720 linear objective coefficients
Variable types: 744 continuous, 1176 integer (1176 binary)
Coefficient statistics:
  Matrix range     [4e-01, 2e+03]
  Objective range  [1e+00, 1e+00]
  Bounds range     [1e+00, 1e+03]
  RHS range        [1e+00, 3e+03]

MIP start from previous solve produced solution with objective 131 (0.00s)
MIP start from previous solve produced solution with objective 131 (0.00s)
Loaded MIP start from previous solve with objective 131

Presolve removed 2041 rows and 1804 columns
Presolve time: 0.00s
Presolved: 121 rows, 116 columns, 411 nonzeros
Variable types: 47 continuous, 69 integer (69 binary)

Root relaxation: objective 1.755558e+01, 131 iterations, 0.00 seconds (0.00 work units)

    Nodes    |    Current Node    |     Objective Bounds      |     Work
 Expl Unexpl |  Obj  Depth IntInf | Incumbent    BestBd   Gap | It/Node Time

     0     0   17.55558    0   40  131.00000   17.55558  86.6%     -    0s
H    0     0                     100.0000000   17.55558  82.4%     -    0s
     0     0   57.15201    0   30  100.00000   57.15201  42.8%     -    0s
     0     0   79.46504    0   24  100.00000   79.46504  20.5%     -    0s
     0     0   90.12742    0   16  100.00000   90.12742  9.87%     -    0s
     0     0   93.61823    0   16  100.00000   93.61823  6.38%     -    0s
     0     0   94.24587    0   16  100.00000   94.24587  5.75%     -    0s
     0     0   97.01786    0    8  100.00000   97.01786  2.98%     -    0s
     0     0     cutoff    0       100.00000  100.00000  0.00%     -    0s

Cutting planes:
  Learned: 11
  Gomory: 3
  Cover: 5
  Implied bound: 1
  Clique: 12
  MIR: 8
  Flow cover: 1
  RLT: 1
  BQP: 1

Explored 1 nodes (229 simplex iterations) in 0.03 seconds (0.01 work units)
Thread count was 20 (of 20 available processors)

Solution count 2: 100 131 

Optimal solution found (tolerance 1.00e-04)
Best objective 1.000000000000e+02, best bound 1.000000000000e+02, gap 0.0000%
